
Starting CP-SAT solver v9.14.6206
Parameters: max_time_in_seconds: 600 log_search_progress: true relative_gap_limit: 0
Setting number of workers to 20

Initial optimization model '': (model_fingerprint: 0xc82b5dbdbc665e53)
#Variables: 421 (#ints: 1 in objective) (321 primary variables)
  - 80 in [0,12312]
  - 16 in [0,61560]
  - 1 in [0,196992]
  - 1 in [0,1181952]
  - 2 in [0,1378944]
  - 320 in [1440,12312]
  - 1 constants in {0} 
#kInterval: 160
#kLinMax: 48 (#expressions: 96)
#kLinear1: 17
#kLinear2: 192
#kLinear3: 2
#kLinearN: 2 (#terms: 50)
#kNoOverlap: 10 (#intervals: 160)

Starting presolve at 0.00s
  8.55e-05s  0.00e+00d  [DetectDominanceRelations] 
  2.53e-03s  0.00e+00d  [operations_research::sat::CpModelPresolver::PresolveToFixPoint] #num_loops=10 #num_dual_strengthening=1 
  8.40e-06s  0.00e+00d  [operations_research::sat::CpModelPresolver::ExtractEncodingFromLinear] 
  2.32e-05s  0.00e+00d  [operations_research::sat::CpModelPresolver::DetectDuplicateColumns] 
  9.77e-05s  0.00e+00d  [operations_research::sat::CpModelPresolver::DetectDuplicateConstraints] 
[Symmetry] Graph for symmetry has 980 nodes and 940 arcs.
[Symmetry] Symmetry computation done. time: 7.75e-05 dtime: 0.00014152
  1.13e-04s  0.00e+00d  [operations_research::sat::CpModelPresolver::DetectDuplicateConstraintsWithDifferentEnforcements] 
  7.59e-04s  2.30e-06d  [operations_research::sat::CpModelPresolver::Probe] 
  1.51e-05s  0.00e+00d  [MaxClique] 
  6.07e-05s  0.00e+00d  [DetectDominanceRelations] 
  5.05e-04s  0.00e+00d  [operations_research::sat::CpModelPresolver::PresolveToFixPoint] #num_loops=1 #num_dual_strengthening=1 
  4.30e-05s  0.00e+00d  [operations_research::sat::CpModelPresolver::ProcessAtMostOneAndLinear] 
  7.02e-05s  0.00e+00d  [operations_research::sat::CpModelPresolver::DetectDuplicateConstraints] 
  6.65e-05s  0.00e+00d  [operations_research::sat::CpModelPresolver::DetectDuplicateConstraintsWithDifferentEnforcements] 
  4.21e-05s  1.13e-06d  [operations_research::sat::CpModelPresolver::DetectDominatedLinearConstraints] #relevant_constraints=188 
  3.60e-05s  0.00e+00d  [operations_research::sat::CpModelPresolver::DetectDifferentVariables] 
  4.00e-06s  0.00e+00d  [operations_research::sat::CpModelPresolver::ProcessSetPPC] 
  5.50e-06s  0.00e+00d  [operations_research::sat::CpModelPresolver::FindAlmostIdenticalLinearConstraints] 
  1.24e-05s  0.00e+00d  [operations_research::sat::CpModelPresolver::FindBigAtMostOneAndLinearOverlap] 
  2.49e-05s  6.66e-06d  [operations_research::sat::CpModelPresolver::FindBigVerticalLinearOverlap] 
  4.50e-06s  0.00e+00d  [operations_research::sat::CpModelPresolver::FindBigHorizontalLinearOverlap] 
  7.00e-06s  0.00e+00d  [operations_research::sat::CpModelPresolver::MergeClauses] 
  6.34e-05s  0.00e+00d  [DetectDominanceRelations] 
  3.59e-04s  0.00e+00d  [operations_research::sat::CpModelPresolver::PresolveToFixPoint] #num_loops=1 #num_dual_strengthening=1 
  5.36e-05s  0.00e+00d  [DetectDominanceRelations] 
  3.44e-04s  0.00e+00d  [operations_research::sat::CpModelPresolver::PresolveToFixPoint] #num_loops=1 #num_dual_strengthening=1 
  1.81e-05s  0.00e+00d  [operations_research::sat::CpModelPresolver::DetectDuplicateColumns] 
  6.93e-05s  0.00e+00d  [operations_research::sat::CpModelPresolver::DetectDuplicateConstraints] 
[Symmetry] Graph for symmetry has 939 nodes and 856 arcs.
[Symmetry] Symmetry computation done. time: 6.39e-05 dtime: 0.00013535
  8.04e-05s  0.00e+00d  [operations_research::sat::CpModelPresolver::DetectDuplicateConstraintsWithDifferentEnforcements] 
  5.79e-04s  1.86e-06d  [operations_research::sat::CpModelPresolver::Probe] 
  4.90e-06s  0.00e+00d  [MaxClique] 
  6.32e-05s  0.00e+00d  [DetectDominanceRelations] 
  3.99e-04s  0.00e+00d  [operations_research::sat::CpModelPresolver::PresolveToFixPoint] #num_loops=1 #num_dual_strengthening=1 
  4.46e-05s  0.00e+00d  [operations_research::sat::CpModelPresolver::ProcessAtMostOneAndLinear] 
  7.73e-05s  0.00e+00d  [operations_research::sat::CpModelPresolver::DetectDuplicateConstraints] 
  7.65e-05s  0.00e+00d  [operations_research::sat::CpModelPresolver::DetectDuplicateConstraintsWithDifferentEnforcements] 
  4.65e-05s  1.13e-06d  [operations_research::sat::CpModelPresolver::DetectDominatedLinearConstraints] #relevant_constraints=188 
  4.02e-05s  0.00e+00d  [operations_research::sat::CpModelPresolver::DetectDifferentVariables] 
  3.80e-06s  0.00e+00d  [operations_research::sat::CpModelPresolver::ProcessSetPPC] 
  5.80e-06s  0.00e+00d  [operations_research::sat::CpModelPresolver::FindAlmostIdenticalLinearConstraints] 
  1.36e-05s  0.00e+00d  [operations_research::sat::CpModelPresolver::FindBigAtMostOneAndLinearOverlap] 
  2.91e-05s  6.66e-06d  [operations_research::sat::CpModelPresolver::FindBigVerticalLinearOverlap] 
  3.60e-06s  0.00e+00d  [operations_research::sat::CpModelPresolver::FindBigHorizontalLinearOverlap] 
  7.00e-06s  0.00e+00d  [operations_research::sat::CpModelPresolver::MergeClauses] 
  6.82e-05s  0.00e+00d  [DetectDominanceRelations] 
  4.16e-04s  0.00e+00d  [operations_research::sat::CpModelPresolver::PresolveToFixPoint] #num_loops=1 #num_dual_strengthening=1 
  2.41e-05s  0.00e+00d  [operations_research::sat::CpModelPresolver::ExpandObjective] 

Presolve summary:
  - 205 affine relations were detected.
  - rule 'TODO dual: only one blocking constraint?' was applied 288 times.
  - rule 'TODO dual: only one unspecified blocking constraint?' was applied 220 times.
  - rule 'affine: new relation' was applied 205 times.
  - rule 'lin_max: converted to equality' was applied 4 times.
  - rule 'lin_max: removed exprs' was applied 4 times.
  - rule 'lin_max: rewrite with precedences' was applied 44 times.
  - rule 'lin_max: target domain reduced' was applied 48 times.
  - rule 'linear: always true' was applied 65 times.
  - rule 'linear: doubleton free' was applied 2 times.
  - rule 'linear: empty' was applied 4 times.
  - rule 'linear: fixed or dup variables' was applied 13 times.
  - rule 'linear: reduced variable domains' was applied 929 times.
  - rule 'linear: remapped using affine relations' was applied 338 times.
  - rule 'linear: variable substitution 0' was applied 1 time.
  - rule 'linear: variable substitution 1' was applied 2 times.
  - rule 'presolve: 9 unused variables removed.' was applied 1 time.
  - rule 'presolve: iteration' was applied 2 times.

Presolved optimization model '': (model_fingerprint: 0xaef897572ac08339)
#Variables: 204 (#ints: 44 in objective) (160 primary variables)
  - 144 different domains in [0,12291] with a largest complexity of 1.
#kInterval: 160
#kLinear2: 188
#kNoOverlap: 10 (#intervals: 160)
[Symmetry] Graph for symmetry has 722 nodes and 856 arcs.
[Symmetry] Symmetry computation done. time: 6.32e-05 dtime: 0.00012233

Preloading model.
#Bound   0.01s best:inf   next:[0,752351] initial_domain
#Model   0.01s var:204/204 constraints:358/358

Starting search at 0.01s with 20 workers.
13 full problem subsolvers: [core, default_lp, fixed, lb_tree_search, max_lp, no_lp, objective_lb_search, objective_shaving_no_lp, probing, pseudo_costs, quick_restart, quick_restart_no_lp, reduced_costs]
7 first solution subsolvers: [fj(2), fj_lin, fs_random, fs_random_no_lp, fs_random_quick_restart, fs_random_quick_restart_no_lp]
17 interleaved subsolvers: [feasibility_pump, graph_arc_lns, graph_cst_lns, graph_dec_lns, graph_var_lns, lb_relax_lns, ls(2), ls_lin, rins/rens, rnd_cst_lns, rnd_var_lns, scheduling_intervals_lns, scheduling_precedences_lns, scheduling_resource_windows_lns, scheduling_time_window_lns, variables_shaving]
3 helper subsolvers: [neighborhood_helper, synchronization_agent, update_gap_integral]

#1       0.02s best:688   next:[0,687]    core
#Bound   0.02s best:688   next:[8,687]    objective_lb_search
#Bound   0.02s best:688   next:[10,687]   objective_lb_search
#2       0.03s best:687   next:[10,686]   graph_dec_lns (d=5.00e-01 s=25 t=0.10 p=0.00 stall=0 h=base) [hint]
#3       0.03s best:137   next:[10,136]   graph_cst_lns (d=5.00e-01 s=24 t=0.10 p=0.00 stall=0 h=base)
#4       0.03s best:12    next:[10,11]    objective_lb_search
#Bound   0.03s best:12    next:[11,11]    objective_lb_search
#5       0.04s best:11    next:[]         max_lp
#Done    0.04s max_lp

Task timing                                  n [     min,      max]      avg      dev     time         n [     min,      max]      avg      dev    dtime
                             'core':         1 [ 35.04ms,  35.04ms]  35.04ms   0.00ns  35.04ms         1 [  1.64ms,   1.64ms]   1.64ms   0.00ns   1.64ms
                       'default_lp':         1 [ 35.71ms,  35.71ms]  35.71ms   0.00ns  35.71ms         1 [  4.03ms,   4.03ms]   4.03ms   0.00ns   4.03ms
                 'feasibility_pump':         1 [  3.43ms,   3.43ms]   3.43ms   0.00ns   3.43ms         0 [  0.00ns,   0.00ns]   0.00ns   0.00ns   0.00ns
                            'fixed':         1 [ 32.82ms,  32.82ms]  32.82ms   0.00ns  32.82ms         0 [  0.00ns,   0.00ns]   0.00ns   0.00ns   0.00ns
                               'fj':         0 [  0.00ns,   0.00ns]   0.00ns   0.00ns   0.00ns         0 [  0.00ns,   0.00ns]   0.00ns   0.00ns   0.00ns
                               'fj':         1 [ 31.82ms,  31.82ms]  31.82ms   0.00ns  31.82ms         1 [ 26.86ms,  26.86ms]  26.86ms   0.00ns  26.86ms
                           'fj_lin':         0 [  0.00ns,   0.00ns]   0.00ns   0.00ns   0.00ns         0 [  0.00ns,   0.00ns]   0.00ns   0.00ns   0.00ns
                        'fs_random':         1 [  4.64ms,   4.64ms]   4.64ms   0.00ns   4.64ms         0 [  0.00ns,   0.00ns]   0.00ns   0.00ns   0.00ns
                  'fs_random_no_lp':         1 [  3.82ms,   3.82ms]   3.82ms   0.00ns   3.82ms         0 [  0.00ns,   0.00ns]   0.00ns   0.00ns   0.00ns
          'fs_random_quick_restart':         1 [  4.31ms,   4.31ms]   4.31ms   0.00ns   4.31ms         0 [  0.00ns,   0.00ns]   0.00ns   0.00ns   0.00ns
    'fs_random_quick_restart_no_lp':         1 [  4.56ms,   4.56ms]   4.56ms   0.00ns   4.56ms         0 [  0.00ns,   0.00ns]   0.00ns   0.00ns   0.00ns
                    'graph_arc_lns':         1 [ 26.88ms,  26.88ms]  26.88ms   0.00ns  26.88ms         1 [  1.37ms,   1.37ms]   1.37ms   0.00ns   1.37ms
                    'graph_cst_lns':         1 [  7.89ms,   7.89ms]   7.89ms   0.00ns   7.89ms         1 [ 92.46us,  92.46us]  92.46us   0.00ns  92.46us
                    'graph_dec_lns':         1 [  4.81ms,   4.81ms]   4.81ms   0.00ns   4.81ms         1 [ 17.82us,  17.82us]  17.82us   0.00ns  17.82us
                    'graph_var_lns':         1 [ 26.79ms,  26.79ms]  26.79ms   0.00ns  26.79ms         1 [  1.37ms,   1.37ms]   1.37ms   0.00ns   1.37ms
                     'lb_relax_lns':         1 [ 23.20ms,  23.20ms]  23.20ms   0.00ns  23.20ms         0 [  0.00ns,   0.00ns]   0.00ns   0.00ns   0.00ns
                   'lb_tree_search':         1 [ 34.31ms,  34.31ms]  34.31ms   0.00ns  34.31ms         0 [  0.00ns,   0.00ns]   0.00ns   0.00ns   0.00ns
                               'ls':         0 [  0.00ns,   0.00ns]   0.00ns   0.00ns   0.00ns         0 [  0.00ns,   0.00ns]   0.00ns   0.00ns   0.00ns
                               'ls':         0 [  0.00ns,   0.00ns]   0.00ns   0.00ns   0.00ns         0 [  0.00ns,   0.00ns]   0.00ns   0.00ns   0.00ns
                           'ls_lin':         0 [  0.00ns,   0.00ns]   0.00ns   0.00ns   0.00ns         0 [  0.00ns,   0.00ns]   0.00ns   0.00ns   0.00ns
                           'max_lp':         1 [ 32.15ms,  32.15ms]  32.15ms   0.00ns  32.15ms         1 [  1.89ms,   1.89ms]   1.89ms   0.00ns   1.89ms
                            'no_lp':         1 [ 35.35ms,  35.35ms]  35.35ms   0.00ns  35.35ms         1 [  5.50ms,   5.50ms]   5.50ms   0.00ns   5.50ms
              'objective_lb_search':         1 [ 30.35ms,  30.35ms]  30.35ms   0.00ns  30.35ms         0 [  0.00ns,   0.00ns]   0.00ns   0.00ns   0.00ns
          'objective_shaving_no_lp':         1 [  4.92ms,   4.92ms]   4.92ms   0.00ns   4.92ms         0 [  0.00ns,   0.00ns]   0.00ns   0.00ns   0.00ns
                          'probing':         1 [ 34.11ms,  34.11ms]  34.11ms   0.00ns  34.11ms         0 [  0.00ns,   0.00ns]   0.00ns   0.00ns   0.00ns
                     'pseudo_costs':         1 [ 34.46ms,  34.46ms]  34.46ms   0.00ns  34.46ms         1 [603.22us, 603.22us] 603.22us   0.00ns 603.22us
                    'quick_restart':         1 [ 34.59ms,  34.59ms]  34.59ms   0.00ns  34.59ms         1 [916.84us, 916.84us] 916.84us   0.00ns 916.84us
              'quick_restart_no_lp':         1 [ 34.00ms,  34.00ms]  34.00ms   0.00ns  34.00ms         1 [  4.67ms,   4.67ms]   4.67ms   0.00ns   4.67ms
                    'reduced_costs':         1 [ 35.04ms,  35.04ms]  35.04ms   0.00ns  35.04ms         0 [  0.00ns,   0.00ns]   0.00ns   0.00ns   0.00ns
                        'rins/rens':         0 [  0.00ns,   0.00ns]   0.00ns   0.00ns   0.00ns         0 [  0.00ns,   0.00ns]   0.00ns   0.00ns   0.00ns
                      'rnd_cst_lns':         1 [  4.61ms,   4.61ms]   4.61ms   0.00ns   4.61ms         1 [ 23.77us,  23.77us]  23.77us   0.00ns  23.77us
                      'rnd_var_lns':         1 [  5.06ms,   5.06ms]   5.06ms   0.00ns   5.06ms         1 [ 17.92us,  17.92us]  17.92us   0.00ns  17.92us
         'scheduling_intervals_lns':         1 [ 22.78ms,  22.78ms]  22.78ms   0.00ns  22.78ms         1 [142.22us, 142.22us] 142.22us   0.00ns 142.22us
       'scheduling_precedences_lns':         0 [  0.00ns,   0.00ns]   0.00ns   0.00ns   0.00ns         0 [  0.00ns,   0.00ns]   0.00ns   0.00ns   0.00ns
  'scheduling_resource_windows_lns':         1 [ 16.34ms,  16.34ms]  16.34ms   0.00ns  16.34ms         1 [  4.49us,   4.49us]   4.49us   0.00ns   4.49us
       'scheduling_time_window_lns':         1 [ 22.06ms,  22.06ms]  22.06ms   0.00ns  22.06ms         1 [ 84.27us,  84.27us]  84.27us   0.00ns  84.27us
                'variables_shaving':         1 [ 32.27ms,  32.27ms]  32.27ms   0.00ns  32.27ms         1 [393.42us, 393.42us] 393.42us   0.00ns 393.42us

Search stats                        Bools  Conflicts  Branches  Restarts  BoolPropag  IntegerPropag
                           'core':    192          1       922       385         782         10'346
                     'default_lp':    225          0       387        92       2'559         30'596
                          'fixed':    161         17       476       276         398         15'761
                      'fs_random':      0          0         0         0           0              0
                'fs_random_no_lp':      0          0         0         0           0              0
        'fs_random_quick_restart':      0          0         0         0           0              0
  'fs_random_quick_restart_no_lp':      0          0         0         0           0              0
                 'lb_tree_search':  1'200          0       490       490           0          3'776
                         'max_lp':    169          0       169         1           0            833
                          'no_lp':    358          5       531        10       4'310         44'435
            'objective_lb_search':    160          2       474       291         494          6'963
                        'probing':  1'200          0       426       426           0          3'278
                   'pseudo_costs':      1          0         0         0           0            331
                  'quick_restart':    178          5       198         1          39          5'477
            'quick_restart_no_lp':    203          1       482       184       2'809         38'835
                  'reduced_costs':  1'200          0       484       484           0          3'726

SAT stats                           ClassicMinim  LitRemoved  LitLearned  LitForgotten  Subsumed  MClauses  MDecisions  MLitTrue  MSubsumed  MLitRemoved  MReused
                           'core':             0           0           0             0         0         0           0         0          0            0        0
                     'default_lp':             0           0           0             0         0         0           0         0          0            0        0
                          'fixed':             0           0          45             0         0         0           0         0          0            0        0
                      'fs_random':             0           0           0             0         0         0           0         0          0            0        0
                'fs_random_no_lp':             0           0           0             0         0         0           0         0          0            0        0
        'fs_random_quick_restart':             0           0           0             0         0         0           0         0          0            0        0
  'fs_random_quick_restart_no_lp':             0           0           0             0         0         0           0         0          0            0        0
                 'lb_tree_search':             0           0           0             0         0         0           0         0          0            0        0
                         'max_lp':             0           0           0             0         0         0           0         0          0            0        0
                          'no_lp':             0           0          35             0         0         0           0         0          0            0        0
            'objective_lb_search':             0           0           2             0         0         0           0         0          0            0        0
                        'probing':             0           0           0             0         0         0           0         0          0            0        0
                   'pseudo_costs':             0           0           0             0         0         0           0         0          0            0        0
                  'quick_restart':             0           0          12             0         0         0           0         0          0            0        0
            'quick_restart_no_lp':             0           0           1             0         0         0           0         0          0            0        0
                  'reduced_costs':             0           0           0             0         0         0           0         0          0            0        0

Lp stats                  Component  Iterations  AddedCuts  OPTIMAL  DUAL_F.  DUAL_U.
           'default_lp':         16         260          0      569        0        0
                'fixed':         16         228          0      367        0        0
            'fs_random':         16           0          0        0        0        0
       'lb_tree_search':          1           0          0        0        0        0
               'max_lp':          1         264         80       70        0        0
  'objective_lb_search':         16         172          0      340        0        0
              'probing':         16           0          0        0        0        0
         'pseudo_costs':          1         164        374        9        0        0
        'quick_restart':         16         241          0      372        0        0
        'reduced_costs':          1           0          0        0        0        0

Lp dimension              Final dimension of first component
           'default_lp':      8 rows, 13 columns, 16 entries
                'fixed':     10 rows, 13 columns, 20 entries
            'fs_random':       0 rows, 13 columns, 0 entries
       'lb_tree_search':  188 rows, 204 columns, 376 entries
               'max_lp':  196 rows, 204 columns, 442 entries
  'objective_lb_search':      8 rows, 13 columns, 16 entries
              'probing':       0 rows, 13 columns, 0 entries
         'pseudo_costs':   70 rows, 204 columns, 161 entries
        'quick_restart':     10 rows, 13 columns, 20 entries
        'reduced_costs':      0 rows, 204 columns, 0 entries

Lp debug                  CutPropag  CutEqPropag  Adjust  Overflow  Bad  BadScaling
           'default_lp':          0            0       0         0    0           0
                'fixed':          0            0       0         0    0           0
            'fs_random':          0            0       0         0    0           0
       'lb_tree_search':          0            0       0         0    0           0
               'max_lp':          0            0       0         0  792           0
  'objective_lb_search':          0            0       0         0    0           0
              'probing':          0            0       0         0    0           0
         'pseudo_costs':          0            0       0         0   98           0
        'quick_restart':          0            0       0         0    0           0
        'reduced_costs':          0            0       0         0    0           0

Lp pool                   Constraints  Updates  Simplif  Merged  Shortened  Split  Strenghtened  Cuts/Call
           'default_lp':          188        0        0       0          0      0             0        0/0
                'fixed':          188        0        0       0          0      0             0        0/0
            'fs_random':          188        0        0       0          0      0             0        0/0
       'lb_tree_search':          188        0        0       0          0      0             0        0/0
               'max_lp':          268        0       60       0         63      0             0     80/121
  'objective_lb_search':          188        0       57       0         57      0             0        0/0
              'probing':          188        0        0       0          0      0             0        0/0
         'pseudo_costs':          551        0      347      11         69      0             0    374/531
        'quick_restart':          188        0        0       0          0      0             0        0/0
        'reduced_costs':          188        0        0       0          0      0             0        0/0

Lp Cut                                                max_lp  pseudo_costs
                                               CG_R:       -             1
                                            MIR_1_K:       -             2
                                            MIR_1_R:       -            10
                  NoOverlapCompletionTimeExhaustive:       5             9
           NoOverlapCompletionTimeExhaustive_lifted:       5            18
  NoOverlapCompletionTimeExhaustive_lifted_weighted:       6            54
         NoOverlapCompletionTimeExhaustive_weighted:      20            23
                    NoOverlapCompletionTimeQueyrane:       2            47
             NoOverlapCompletionTimeQueyrane_lifted:       2            80
                        NoOverlapDisjunctionOnStart:      40           129
                                        ZERO_HALF_R:       -             1

LNS stats                             Improv/Calls  Closed  Difficulty  TimeLimit
                    'graph_arc_lns':           1/1      0%    2.93e-01       0.10
                    'graph_cst_lns':           1/1    100%    7.07e-01       0.10
                    'graph_dec_lns':           1/1    100%    7.07e-01       0.10
                    'graph_var_lns':           1/1      0%    2.93e-01       0.10
                     'lb_relax_lns':           0/0      0%    5.00e-01       0.50
                        'rins/rens':           0/0      0%    5.00e-01       0.10
                      'rnd_cst_lns':           0/1    100%    7.07e-01       0.10
                      'rnd_var_lns':           0/1    100%    7.07e-01       0.10
         'scheduling_intervals_lns':           1/1      0%    2.93e-01       0.10
       'scheduling_precedences_lns':           0/0      0%    5.00e-01       0.10
  'scheduling_resource_windows_lns':           1/1      0%    2.93e-01       0.10
       'scheduling_time_window_lns':           1/1      0%    2.93e-01       0.10

LS stats         Batches  Restarts/Perturbs  LinMoves  GenMoves  CompoundMoves  Bactracks  WeightUpdates  ScoreComputed
  'fj_restart':        1                  1        28       488              0          0              7         83'933

Solutions (5)             Num   Rank
                 'core':    1  [1,1]
        'graph_cst_lns':    1  [3,3]
        'graph_dec_lns':    1  [2,2]
               'max_lp':    1  [5,5]
  'objective_lb_search':    1  [4,4]

Objective bounds          Num
       'initial_domain':    1
  'objective_lb_search':    3

Solution repositories    Added  Queried  Synchro
  'feasible solutions':     17       20       10
   'fj solution hints':      0        0        0
        'lp solutions':      1        0        1
                'pump':      0        0

Improving bounds shared    Num  Sym
                 'fixed':  204    0
                 'no_lp':  468    0
   'objective_lb_search':  204    0
   'quick_restart_no_lp':    5    0

CpSolverResponse summary:
status: OPTIMAL
objective: 11
best_bound: 11
integers: 204
booleans: 0
conflicts: 0
branches: 0
propagations: 0
integer_propagations: 0
restarts: 0
lp_iterations: 0
walltime: 0.0584502
usertime: 0.0584504
deterministic_time: 0.0496713
gap_integral: 0.0120749
solution_fingerprint: 0xb52837553f54c234

